NAME : cvrp-A-G-150-16.749.tour
COMMENT : Length = 749
COMMENT : Found by LKH [Keld Helsgaun] Thu May 17 22:42:35 2018
TYPE : TOUR
DIMENSION : 31
TOUR_SECTION
1
22
17
30
19
15
11
2
3
13
23
21
24
20
10
9
16
8
12
27
5
7
6
4
14
28
29
25
26
18
31
-1
EOF
